30
Lattice="4.760700000000 0.000000000000 0.000000000000 -2.380350000000 4.122887139797 0.000000000000 0.000000000000 0.000000000000 12.994700000000" Properties=species:S:1:pos:R:3 pbc="T T T"
Al 0.000000000000 0.000000000000 4.576213552000
Al 0.000000000000 0.000000000000 1.921136448000
Al 2.380350000000 1.374295713266 8.907780218667
Al 2.380350000000 1.374295713266 6.252703114667
Al 0.000000000000 2.748591426531 0.244646885333
Al 0.000000000000 2.748591426531 10.584269781333
Al 0.000000000000 0.000000000000 8.418486448000
Al 0.000000000000 0.000000000000 11.073563552000
Al 2.380350000000 1.374295713266 12.750053114667
Al 2.380350000000 1.374295713266 2.410430218667
Al 0.000000000000 2.748591426531 4.086919781333
Al 0.000000000000 2.748591426531 6.741996885333
O 1.457916768000 0.000000000000 3.248675000000
O -0.728958384000 1.262592957691 3.248675000000
O 1.651391616000 2.860294182105 3.248675000000
O 3.838266768000 1.374295713266 7.580241666667
O 1.651391616000 2.636888670957 7.580241666667
O 1.651391616000 0.111702755574 7.580241666667
O 1.457916768000 2.748591426531 11.911808333333
O -0.728958384000 4.011184384222 11.911808333333
O -0.728958384000 1.485998468840 11.911808333333
O 3.302783232000 0.000000000000 9.746025000000
O -1.651391616000 2.860294182105 9.746025000000
O 0.728958384000 1.262592957691 9.746025000000
O 0.922433232000 1.374295713266 1.082891666667
O 3.109308384000 0.111702755574 1.082891666667
O 3.109308384000 2.636888670957 1.082891666667
O -1.457916768000 2.748591426531 5.414458333333
O 0.728958384000 1.485998468840 5.414458333333
O 0.728958384000 4.011184384222 5.414458333333
