12
Lattice="5.462600000000 0.000000000000 0.000000000000 0.000000000000 5.462600000000 0.000000000000 0.000000000000 0.000000000000 5.462600000000" Properties=species:S:1:pos:R:3 pbc="T T T"
Ca 0.000000000000 0.000000000000 0.000000000000
Ca 0.000000000000 2.731300000000 2.731300000000
Ca 2.731300000000 0.000000000000 2.731300000000
Ca 2.731300000000 2.731300000000 0.000000000000
F 1.365650000000 1.365650000000 1.365650000000
F 4.096950000000 4.096950000000 1.365650000000
F 4.096950000000 1.365650000000 4.096950000000
F 1.365650000000 4.096950000000 4.096950000000
F 1.365650000000 1.365650000000 4.096950000000
F 4.096950000000 4.096950000000 4.096950000000
F 1.365650000000 4.096950000000 1.365650000000
F 4.096950000000 1.365650000000 1.365650000000
