28
Lattice="10.330000000000 0.000000000000 0.000000000000 0.000000000000 6.010000000000 0.000000000000 0.000000000000 0.000000000000 4.690000000000" Properties=species:S:1:pos:R:3 pbc="T T T"
Li 0.000000000000 0.000000000000 0.000000000000
Li 5.165000000000 0.000000000000 2.345000000000
Li 0.000000000000 3.005000000000 0.000000000000
Li 5.165000000000 3.005000000000 2.345000000000
Fe 2.915126000000 1.502500000000 4.571343000000
Fe 2.249874000000 4.507500000000 2.226343000000
Fe 7.414874000000 4.507500000000 0.118657000000
Fe 8.080126000000 1.502500000000 2.463657000000
P 0.980317000000 1.502500000000 1.960420000000
P 4.184683000000 4.507500000000 4.305420000000
P 9.349683000000 4.507500000000 2.729580000000
P 6.145317000000 1.502500000000 0.384580000000
O 0.998911000000 1.502500000000 3.484201000000
O 4.166089000000 4.507500000000 1.139201000000
O 9.331089000000 4.507500000000 1.205799000000
O 6.163911000000 1.502500000000 3.550799000000
O 4.721843000000 1.502500000000 0.964264000000
O 0.443157000000 4.507500000000 3.309264000000
O 5.608157000000 4.507500000000 3.725736000000
O 9.886843000000 1.502500000000 1.380736000000
O 1.710648000000 0.279465000000 1.338526000000
O 3.454352000000 5.730535000000 3.683526000000
O 8.619352000000 3.284465000000 3.351474000000
O 6.875648000000 2.725535000000 1.006474000000
O 8.619352000000 5.730535000000 3.351474000000
O 6.875648000000 0.279465000000 1.006474000000
O 1.710648000000 2.725535000000 1.338526000000
O 3.454352000000 3.284465000000 3.683526000000
