24
Lattice="4.940000000000 0.000000000000 0.000000000000 -2.470000000000 4.278165494695 0.000000000000 0.000000000000 0.000000000000 7.340000000000" Properties=species:S:1:pos:R:3 pbc="T T T"
Li 0.000000000000 0.000000000000 0.000000000000
Li 2.470000000000 1.426055164898 2.446666666667
Li 0.000000000000 2.852110329797 4.893333333333
P 0.000000000000 0.000000000000 3.670000000000
P 2.470000000000 1.426055164898 6.116666666667
P 0.000000000000 2.852110329797 1.223333333333
F -0.180310000000 1.056706877190 4.271880000000
F 1.645020000000 3.593659015544 4.271880000000
F -1.464710000000 3.905965096657 4.271880000000
F 2.289690000000 2.482762042088 6.718546666667
F 1.645020000000 0.741548685747 6.718546666667
F 3.475290000000 1.053854766860 6.718546666667
F -0.180310000000 3.908817206986 1.825213333333
F -0.824980000000 2.167603850646 1.825213333333
F 1.005290000000 2.479909931758 1.825213333333
F 2.650310000000 3.221458617505 3.068120000000
F 0.824980000000 0.684506479151 3.068120000000
F 3.934710000000 0.372200398038 3.068120000000
F 2.650310000000 0.369348287709 5.514786666667
F 3.294980000000 2.110561644050 5.514786666667
F 1.464710000000 1.798255562937 5.514786666667
F 0.180310000000 1.795403452607 0.621453333333
F 0.824980000000 3.536616808948 0.621453333333
F -1.005290000000 3.224310727835 0.621453333333
